
Gurobi 9.0.3 (win64, Java) logging started Thu Feb 18 08:23:55 2021


--------------------------------------------
Warning: your license will expire in 14 days
--------------------------------------------

Academic license - for non-commercial use only
